c read Graph
c width = 95
c time = 70 ms
c width = 13
c time = 111 ms
c width = 12
c time = 160 ms
c width = 11
c time = 170 ms
c width = 10
c time = 319 ms
c width = 9
c time = 2477 ms
c width = 9
c time = 4855 ms
s td 98 10 108
b 1 1 2 13
b 2 2 3 13 14
b 3 10 11 23 24
b 4 3 13 14 25
b 5 10 23 24 36
b 6 73 85 86 98
b 7 84 95 96 107
b 8 73 86 98 99
b 9 84 95 106 107
b 10 3 4 14 15 25
b 11 4 5 14 15 16 25
b 12 5 7 14 15 16 17 18 25
b 13 7 9 14 15 16 17 18 20 25 31
b 14 9 14 15 16 17 18 20 25 26 31
b 15 9 15 16 17 18 20 25 26 27 31
b 16 9 16 17 18 20 25 26 27 28 31
b 17 9 17 18 20 25 26 27 28 29 31
b 18 9 18 20 25 26 27 28 29 30 31
b 19 9 20 25 26 27 28 29 30 31 37
b 20 9 20 26 27 28 29 30 31 37 38
b 21 9 20 27 28 29 30 31 37 38 39
b 22 9 20 28 29 30 31 37 38 39 40
b 23 9 20 29 30 31 37 38 39 40 41
b 24 9 20 30 31 37 38 39 40 41 42
b 25 9 20 31 37 38 39 40 41 42 49
b 26 9 20 31 38 39 40 41 42 49 50
b 27 9 20 31 39 40 41 42 49 50 51
b 28 9 20 31 40 41 42 49 50 51 52
b 29 9 20 31 41 42 49 50 51 52 53
b 30 9 20 31 42 49 50 51 52 53 61
b 31 9 20 31 42 50 51 52 53 61 62
b 32 9 20 31 42 51 52 53 61 62 63
b 33 9 20 31 42 52 53 61 62 63 64
b 34 9 20 31 42 53 61 62 63 64 73
b 35 9 20 31 42 53 62 63 64 73 74
b 36 9 20 31 42 53 63 64 73 74 75
b 37 9 20 31 42 53 64 73 74 75 86
b 38 9 20 31 42 53 64 73 75 86 99
b 39 9 20 31 42 53 64 75 86 87 99
b 40 9 20 31 42 53 64 75 76 87 99
b 41 9 20 31 42 53 64 65 76 87 99
b 42 9 20 31 42 53 54 65 76 87 99
b 43 9 20 31 42 43 54 65 76 87 99
b 44 9 20 31 43 54 65 76 87 88 99
b 45 9 20 31 43 54 65 76 77 88 99
b 46 9 20 31 43 54 65 66 77 88 99
b 47 9 20 31 43 54 55 66 77 88 99
b 48 9 20 31 43 44 55 66 77 88 99
b 49 9 20 31 33 44 55 66 77 88 99
b 50 9 20 33 44 55 66 77 88 99 100
b 51 9 20 33 44 55 66 77 88 89 100
b 52 9 20 33 44 55 66 77 78 89 100
b 53 9 20 33 44 55 66 67 78 89 100
b 54 9 20 33 44 55 56 67 78 89 100
b 55 9 20 33 44 56 67 78 89 100 101
b 56 9 20 33 44 56 67 78 89 90 101
b 57 9 20 33 44 56 67 78 79 90 101
b 58 9 20 33 44 56 67 68 79 90 101
b 59 9 20 33 44 56 57 68 79 90 101
b 60 9 20 33 44 46 57 68 79 90 101
b 61 9 20 33 46 57 68 79 90 101 102
b 62 9 20 33 46 57 68 79 90 91 102
b 63 9 20 33 46 57 68 79 80 91 102
b 64 9 20 33 46 57 68 80 91 102 103
b 65 9 20 33 46 57 68 80 91 92 103
b 66 9 20 33 46 57 68 80 81 92 103
b 67 9 20 33 46 57 68 70 81 92 103
b 68 9 20 33 46 57 59 70 81 92 103
b 69 9 20 33 46 59 70 72 81 92 103
b 70 59 70 72 81 92 93 103 104
b 71 59 70 72 81 93 104 106
b 72 93 104 105 106
b 73 59 70 72 81 93 94 106
b 74 59 70 72 81 83 94 106
b 75 70 81 82 83 94
b 76 72 83 84 94 106
b 77 83 84 94 95 106
b 78 59 70 71 72 83
b 79 57 68 69 70 81
b 80 7 8 9 20
b 81 5 6 7 18
b 82 7 18 19 20 31
b 83 20 31 32 33 44
b 84 9 20 33 46 48 59 72
b 85 48 59 60 72
b 86 9 20 33 35 46 48 59
b 87 35 46 47 48 59
b 88 9 20 22 33 35 46 48
b 89 9 22 35 36 48
b 90 9 10 22 35 36
b 91 10 22 23 35 36
b 92 22 33 34 35 46
b 93 9 20 21 22 33
b 94 33 44 45 46 57
b 95 46 57 58 59 70
b 96 96 107 108
b 97 85 97 98
b 98 11 12 24
1 2
2 4
3 98
3 5
4 10
5 91
6 97
6 8
7 96
7 9
8 38
9 77
10 11
11 12
12 81
12 13
13 80
13 82
13 14
14 15
15 16
16 17
17 18
18 19
19 20
20 21
21 22
22 23
23 24
24 25
25 26
26 27
27 28
28 29
29 30
30 31
31 32
32 33
33 34
34 35
35 36
36 37
37 38
38 39
39 40
40 41
41 42
42 43
43 44
44 45
45 46
46 47
47 48
48 49
49 83
49 50
50 51
51 52
52 53
53 54
54 55
55 56
56 57
57 58
58 59
59 60
60 94
60 61
61 62
62 63
63 64
64 65
65 66
66 67
67 79
67 68
68 95
68 69
69 84
69 70
70 71
71 72
71 73
73 74
74 76
74 78
74 75
76 77
84 85
84 86
86 87
86 88
88 89
88 93
88 92
89 90
90 91
